Maximize

8 y_0 + 5 y_1 + 8 y_2 + 5 y_3 + 9 y_4


Subject To

a0: x_0_0 + x_0_1 + x_0_2 + x_0_3 + x_0_4 <= 1
a1: x_1_0 + x_1_1 + x_1_2 + x_1_3 + x_1_4 <= 10
a2: x_2_0 + x_2_1 + x_2_2 + x_2_3 + x_2_4 <= 3
a3: x_3_0 + x_3_1 + x_3_2 + x_3_3 + x_3_4 <= 4
a4: x_4_0 + x_4_1 + x_4_2 + x_4_3 + x_4_4 <= 10
a5: x_5_0 + x_5_1 + x_5_2 + x_5_3 + x_5_4 <= 4
a6: x_6_0 + x_6_1 + x_6_2 + x_6_3 + x_6_4 <= 1
a7: x_7_0 + x_7_1 + x_7_2 + x_7_3 + x_7_4 <= 30
b0: x_2_0 + x_3_0 - 2 y_0 = 0
b1: x_1_0 - 0 y_0 = 0
b2: x_0_0 + x_6_0 - 2 y_0 = 0
b3: x_4_0 + x_5_0 + x_7_0 - 0 y_0 = 0
b4: x_2_1 + x_3_1 - 8 y_1 = 0
b5: x_1_1 - 5 y_1 = 0
b6: x_0_1 + x_6_1 - 4 y_1 = 0
b7: x_4_1 + x_5_1 + x_7_1 - 2 y_1 = 0
b8: x_2_2 + x_3_2 - 0 y_2 = 0
b9: x_1_2 - 5 y_2 = 0
b10: x_0_2 + x_6_2 - 0 y_2 = 0
b11: x_4_2 + x_5_2 + x_7_2 - 15 y_2 = 0
b12: x_2_3 + x_3_3 - 0 y_3 = 0
b13: x_1_3 - 7 y_3 = 0
b14: x_0_3 + x_6_3 - 8 y_3 = 0
b15: x_4_3 + x_5_3 + x_7_3 - 5 y_3 = 0
b16: x_2_4 + x_3_4 - 5 y_4 = 0
b17: x_1_4 - 5 y_4 = 0
b18: x_0_4 + x_6_4 - 0 y_4 = 0
b19: x_4_4 + x_5_4 + x_7_4 - 2 y_4 = 0



Bounds


x_0_0 <= 2
x_0_1 <= 11
x_0_2 <= 4
x_0_3 <= 5
x_0_4 <= 11
x_1_0 <= 2
x_1_1 <= 11
x_1_2 <= 4
x_1_3 <= 5
x_1_4 <= 11
x_2_0 <= 2
x_2_1 <= 11
x_2_2 <= 4
x_2_3 <= 5
x_2_4 <= 11
x_3_0 <= 2
x_3_1 <= 11
x_3_2 <= 4
x_3_3 <= 5
x_3_4 <= 11
x_4_0 <= 2
x_4_1 <= 11
x_4_2 <= 4
x_4_3 <= 5
x_4_4 <= 11
x_5_0 <= 2
x_5_1 <= 11
x_5_2 <= 4
x_5_3 <= 5
x_5_4 <= 11
x_6_0 <= 2
x_6_1 <= 11
x_6_2 <= 4
x_6_3 <= 5
x_6_4 <= 11
x_7_0 <= 2
x_7_1 <= 11
x_7_2 <= 4
x_7_3 <= 5
x_7_4 <= 11




General

 x_0_0 x_0_1 x_0_2 x_0_3 x_0_4 x_1_0 x_1_1 x_1_2 x_1_3 x_1_4 x_2_0 x_2_1 x_2_2 x_2_3 x_2_4 x_3_0 x_3_1 x_3_2 x_3_3 x_3_4 x_4_0 x_4_1 x_4_2 x_4_3 x_4_4 x_5_0 x_5_1 x_5_2 x_5_3 x_5_4 x_6_0 x_6_1 x_6_2 x_6_3 x_6_4 x_7_0 x_7_1 x_7_2 x_7_3 x_7_4



End
